23
10
11 17 3 13 15 20 6 19 4 21 9 18 22 16 0 7 1 5 10 12
11 8 9 12 7 19 2 13 3 14 17 1 6 16 22 10 21
12 0 9 1 4 19 3 5 17 13 11 2
16 20 13 14 6 2 7 17 3 19 12 21 11 15
9 13 10 22 14 8 4 18
14 11 5 10 4 16 8 6 1 18 2 17 20 19 12
4 18 2 6 8 16 9 14 10 11 15 19 12 3 13
18 2 1 6 4 11 20 21 15 8 19 16 9 14
17 11
21 10 0 1 7
